% demand
num_movements = 14;
loading_factor = [1100, 850, 800, 1700, 1700, 1950, 1450, 800, 1100, 900, 1850, 1900, 1250, 1600];
pickup_time = [0, 0, 0, 0, 1, 1, 1, 3, 5, 6, 6, 6, 7, 8];
delivery_time = [4, 1, 2, 1, 4, 4, 5, 4, 8, 8, 8, 8, 8, 9];

% transporter definition
total_capacity = 7000;
num_decks = 3;
capacity = [3000, 1000, 3000];

% ways out of decks
num_ways_out = 1;
paths_out = array3d(decks, ways_out, decks, [
% ways out of deck d1
2, 3, 0, 

% ways out of deck d2
3, 0, 0, 

% ways out of deck d3
0, 0, 0,	

]);

